25896 40439 
24652 40580 
26002 40397 
25703 40515 
27053 40328 
24414 40640 
25809 40473 
25465 40575 
28203 40090 
28598 39881 
26815 40388 
24520 40598 
25571 40533 
30180 39291 
29743 39433 
29922 39411 
30044 39354 
